Generated by VASPKIT code               
    1.000000000000000     
     2.7487708124331238   -8.2796075390171069   -0.0354900958599795
     2.7487708124331238    8.2796075390171069   -0.0354900958599795
    -2.6187928059063585   -0.0000000000000000    2.7920753088511630
   O    W    Bi
     6     1     2
Direct
  0.3116010013729493  0.3116010013729493  0.9936144748478384
  0.8186792782218077  0.8186792782218077  0.0062264574246100
  0.9502299291591285  0.7250129978196895  0.5490577650528650
  0.7250129978196895  0.9502299291591285  0.5490577650528650
  0.9744376528304102  0.4790717924465113  0.9178013219029495
  0.4790717924465113  0.9744376528304102  0.9178013219029495
  0.7647745857140436  0.7647745857140436  0.4284918405899703
  0.3531870344924286  0.0070690864494907  0.3535114126262755
  0.0070690864494907  0.3531870344924286  0.3535114126262755
 
  0.00000000E+00  0.00000000E+00  0.00000000E+00
  0.00000000E+00  0.00000000E+00  0.00000000E+00
  0.00000000E+00  0.00000000E+00  0.00000000E+00
  0.00000000E+00  0.00000000E+00  0.00000000E+00
  0.00000000E+00  0.00000000E+00  0.00000000E+00
  0.00000000E+00  0.00000000E+00  0.00000000E+00
  0.00000000E+00  0.00000000E+00  0.00000000E+00
  0.00000000E+00  0.00000000E+00  0.00000000E+00
  0.00000000E+00  0.00000000E+00  0.00000000E+00
