K-Spacing Value to Generate K-Mesh: 0.020
0
Gamma
  13  13  18
0.0  0.0  0.0
