Generated by VASPKIT code               
    1.000000000000000     
     2.7487708124331238   -8.2796075390171069   -0.0354900958599795
     2.7487708124331238    8.2796075390171069   -0.0354900958599795
    -2.6187928059063585   -0.0000000000000000    2.7920753088511630
   O    W    Bi
     6     1     2
Direct
  0.3116010013729478  0.3116010013729478 -0.0063855251521592
  0.8186792782218091  0.8186792782218091  0.0062264574246119
  0.9502299291591298  0.7250129978196894  0.5490577650528679
  0.7250129978196894  0.9502299291591298  0.5490577650528679
  0.9744376528304095  0.4790717924465110  0.9178013219029512
  0.4790717924465110  0.9744376528304095  0.9178013219029512
  0.7647745857140432  0.7647745857140432  0.4284918405899695
  0.3531870344924299  0.0070690864494896  0.3535114126262733
  0.0070690864494896  0.3531870344924299  0.3535114126262733
 
  0.00000000E+00  0.00000000E+00  0.00000000E+00
  0.00000000E+00  0.00000000E+00  0.00000000E+00
  0.00000000E+00  0.00000000E+00  0.00000000E+00
  0.00000000E+00  0.00000000E+00  0.00000000E+00
  0.00000000E+00  0.00000000E+00  0.00000000E+00
  0.00000000E+00  0.00000000E+00  0.00000000E+00
  0.00000000E+00  0.00000000E+00  0.00000000E+00
  0.00000000E+00  0.00000000E+00  0.00000000E+00
  0.00000000E+00  0.00000000E+00  0.00000000E+00
