INCAR created by Atomic Simulation Environment
 KSPACING = 1.256000
 POTIM = 0.200000
 PSTRESS = 0.000000
 SIGMA = 0.060000
 EDIFF = 1.00e-03
 EDIFFG = 1.00e-02
 ALGO = Fast
 GGA = PE
 PREC = Normal
 IBRION = 2
 ISIF = 4
 ISMEAR = 0
 NSW = 85
 LCHARG = .FALSE.
 LWAVE = .FALSE.
 LREAL = A
