INCAR created by Atomic Simulation Environment
 KSPACING = 0.942000
 POTIM = 0.020000
 PSTRESS = 0.000000
 SIGMA = 0.060000
 EDIFF = 1.00e-03
 EDIFFG = 1.00e-02
 ALGO = Fast
 GGA = PE
 PREC = Normal
 IBRION = 2
 ISIF = 3
 ISMEAR = 0
 ISTART = 0
 NSW = 100
 LCHARG = .FALSE.
 LWAVE = .FALSE.
 LREAL = A
