INCAR created by Atomic Simulation Environment
 ENCUT = 400.000000
 KSPACING = 0.618000
 POTIM = 0.250000
 PSTRESS = 0.000000
 SIGMA = 0.060000
 EDIFF = 1.00e-04
 EDIFFG = -2.00e-02
 GGA = PE
 PREC = Normal
 IBRION = 2
 ISIF = 3
 ISMEAR = 0
 ISTART = 0
 NSW = 70
 LCHARG = .FALSE.
 LWAVE = .FALSE.
