 O  W Bi 
 1.0000000000000000
     4.0305051762248789    0.0000000000000000    0.0000000000000000
     0.7099786435488439    5.5689094964119148    0.0000000000000000
     1.1276521504061352    2.0354657412919388    6.4355599528460479
 O   W   Bi 
   6   1   2
Direct
  0.1777960767253175  0.1509367674832489  0.0895578823887350
  0.6236584079329018  0.5133965536960584  0.9552015234580553
  0.6666785750389986  0.8219479126045099  0.2568712967220613
  0.7737191708533412  0.0758966684309436  0.8317018089636253
  0.5944980021736617  0.2435548286210748  0.3541675531897738
  0.1133103333462180  0.6879506743364655  0.5628581059964977
  0.7329893473773909  0.1753557359120042  0.0620659738873676
  0.2441762498458451  0.5969098383045188  0.2700730322151891
  0.5962015168801786  0.8623890235944230  0.6175028231787310
