 O  W Bi 
 1.0000000000000000
     5.4814937692003820    0.0757553798818933    0.2797716413739177
    -0.6300292350252179    5.6547799477110674    0.9132859129977944
    -0.7352494326962535   -1.8290916676757041    5.2845334222516529
 O   W   Bi 
   6   1   2
Direct
  0.0015221607424915  0.4434525337080595  0.5249418943172384
  0.2086050450750230  0.3555765285984791  0.1289572595521607
  0.5853499478193820  0.7047992944083195  0.2625286065575314
  0.4799043537188668  0.4946606638359508  0.6436405545166263
  0.1543820103902411  0.8575698400334804  0.3899074013663466
  0.7686076850574168  0.0754891834776614  0.7176616195404285
  0.3083097602302531  0.5824606707281301  0.3834549488768498
  0.8290858436696292  0.4443764058915692  0.8474144653148945
  0.8378314651666734  0.0487280308707032  0.3492844152457171
