 O  W Bi 
 1.0000000000000000
     3.6604241323997937   -5.1896108159650973   -0.0020133171958196
     3.5902968257092933    5.1712697403372294    0.0076936696206302
    -1.4048662108953107    0.0147349445574403    4.2477741653799272
 O   W   Bi 
   6   1   2
Direct
  0.6234061150894318  0.0712587268332633  0.7068795320872993
  0.7170908502086145  0.5849211162874935  0.8486355805493692
  0.2465724588099047  0.7468454894662332  0.9981868408508020
  0.4177061623198398  0.2830295908636640  0.1515889812407381
  0.9270772871135313  0.3757118974647005  0.2958826822943230
  0.1011000662200501  0.9051362874364807  0.4991747608089976
  0.6698656219030678  0.3301153058183726  0.0007541686054353
  0.3040339746795367  0.6939803792775764  0.5008923497740592
  0.0440929153880289  0.9580557548202110 -0.0019948962110242
