 O  W Bi 
 1.0000000000000000
     5.0032649499663036    0.0000000000000000    0.0000000000000000
    -0.0131427206560363    5.7646559426680026    0.0000000000000000
    -1.5342853470357436   -0.4247975261126365    6.4489390316980337
 O   W   Bi 
   6   1   2
Direct
  0.6884090716060022  0.6710852880803115  0.5489528949333786
  0.4627837128187474  0.8278837175039403  0.9035446241254795
  0.2517032248160695  0.3989924498413830  0.6396722447176532
  0.7993938638079022  0.4108144764897411  0.9292938554230314
  0.3796677557697084  0.2835647897227831  0.2187335797777572
  0.8901833160066854  0.0368685866039400  0.3015833159894286
  0.5528558561107376  0.5736450549854765  0.7561096080446229
  0.4752598599020251  0.9300430026306361  0.2373963306525919
  0.9997433391621277  0.3858072174661175  0.2912900925554974
