 O  W Bi 
 1.0000000000000000
     5.1109932345254077   -0.0454521461486644   -0.1447998680586675
    -4.0131902872496150    6.8268412129717495   -0.6166097588793156
    -0.5245602777692733   -3.5856206826735106    4.8329604038047087
 O   W   Bi 
   6   1   2
Direct
  0.3962811944261765  0.6896392406048811  0.7179332921568371
  0.2366200064828353  0.1826131283399078  0.0423822520224201
  0.1115202595929788  0.8656287218523661  0.4793442917890172
  0.6100485868328615  0.3928963570132905  0.7584878926496429
  0.2236220768824815  0.4908848244190769  0.0457926600135370
  0.8518086722636238  0.0839646744158445  0.4317732937336050
  0.2012077226306739  0.1722694388248544  0.7172714814256164
  0.2369984357161902  0.7675257890707136  0.0577654677710612
  0.0048079283246607  0.3486530640670413  0.2650010352291888
