 O  W Bi 
 1.0000000000000000
     4.5380953137569993    0.0000000000000000    0.0000000000000000
     0.3588812803112463    5.9468624102897545    0.0000000000000000
     0.4415355809318969    2.6908072121943687    6.6215343929481545
 O   W   Bi 
   6   1   2
Direct
  0.3745787747854109  0.7332365284226314  0.9534011463879465
  0.3786162053140867  0.2554453311963178  0.3244725835678136
  0.9365626192921626  0.1515486418315237  0.6594997940761389
  0.9474556971680513  0.6324610291815242  0.3166907388955923
  0.3913904072017125  0.4896538177378001  0.6242189532733017
  0.8968805240456996  0.4658879224571835  0.9467140363649984
  0.1625660098458004  0.3790006577649141  0.4840071748396310
  0.8678609898496494  0.8080604126123713  0.9785799949294275
  0.4219076840297347  0.3694734458124885  0.9689214777759090
