 O  W Bi 
 1.0000000000000000
     3.9328187964481378   -0.4780484521723609   -0.3312545624568972
     0.9886921001197164    6.1729326794277579    0.0824721486851002
     0.2340839342359553    2.2109022768843527    6.2860062245818948
 O   W   Bi 
   6   1   2
Direct
 -0.0026577943518134  0.9402007851487515  0.4307318472187414
  0.0440351011283975  0.3135937688675818  0.6877404223392389
  0.5278587003385147  0.6301707421335089  0.5832878212580667
  0.5385125262528343  0.3240229245799683  0.9563307579104058
  0.4732047469428843  0.2769122613213558  0.4143494032187475
  0.5957544970255744  0.9566369288464535  0.8293328816028485
  0.5834813242486666  0.2629280363693113  0.6956611040988655
  0.0545097206713496  0.6725236712839895  0.7447131490683173
  0.4841064817307802  0.0165543101961674  0.2658251764435999
