 O  W Bi 
 1.0000000000000000
     3.8507987517701991    0.0000000000000000    0.0000000000000000
    -0.0800339802348730    4.2031962695854208    0.0000000000000000
    -1.8953766554188136   -1.9853597706386263    7.9956899594853841
 O   W   Bi 
   6   1   2
Direct
  0.2897960455735435  0.3313930054302701  0.8205334455802277
  0.8011054983813906  0.8205644366181284  0.8174052474935988
  0.4079101039715864  0.9633408985261226  0.0447066145312849
  0.1757340455558187  0.7417709312945435  0.5888218078182497
  0.0648380418619648  0.9734286814261285  0.3015131746946947
  0.5731489198953870  0.4799436558236345  0.3149010238137922
  0.3214234341694702  0.7522618271095948  0.8160678761461527
  0.0169502434773893  0.3341817061860332  0.1527703180005203
  0.6646131976492573  0.9873131895494589  0.4597174064218443
