 O  W Bi 
 1.0000000000000000
     5.2062509353335118   -0.9067225771291066   -0.1988332791913875
    -3.1188057617596909    6.1553996181951112    0.2816883938470759
    -1.0877569324423451   -1.6249697656739321    5.4670972324075588
 O   W   Bi 
   6   1   2
Direct
  0.7024258651406116  0.2851168514044716  0.6178785397006435
  0.1500840901028591  0.7458443233441865  0.5111836604922407
  0.6100644747574672  0.0588523601235302  0.1081341417281944
  0.9225585886987631  0.9349947776377374  0.7927752503652573
  0.4426765810466468  0.4746952720158583  0.4208567770746248
  0.9231773900895727  0.6169418947990851  0.9931617276891762
  0.8311466688575462  0.6364909837985877  0.6568092847164430
 -0.0241975790918614  0.3070209270643590  0.9663381484889880
  0.2607410104800668  0.0140830350401904  0.2748260778996233
