 O  W Bi 
 1.0000000000000000
     4.4314641788308613   -0.3348678159848045    0.0566387220027382
    -0.8715890420969373    6.2364343169567960   -1.0151325135113312
    -0.4126613898554571   -1.0400811881090832    6.0212305782665405
 O   W   Bi 
   6   1   2
Direct
 -0.0257069624756983  0.2262123088965423  0.9032394966575071
  0.0283360752670952  0.3499472071857599  0.4048389020279392
  0.8267779459749770  0.7243495816821947  0.8445163965000512
  0.5781652431482379  0.5128643135367671  0.2514067041196449
  0.4770553952089192  0.0107476713566047  0.1572442106995233
  0.4271146547947141 -0.0700337113046838  0.6459462052631970
  0.6789015596104128  0.9727949480053631  0.8957384868896325
  0.0965228576083913  0.5702718191044510  0.1943404411950469
  0.5344443371785691  0.3084993288624404  0.4802416276636168
