 O  W Bi 
 1.0000000000000000
     2.7826620573877379   -8.4871776787948274    0.0000000000000000
     2.7826620573877379    8.4871776787948274    0.0000000000000000
    -2.6148721565505704    0.0000000000000000    2.7977767302275054
 O   W   Bi 
   6   1   2
Direct
  0.6609643828951310  0.6609643828951310  0.9763361361065310
  0.1533842975475317  0.1533842975475317  0.9641198480197180
  0.2538051811630590  0.0341257315795880  0.4351864358691571
  0.0341257315795880  0.2538051811630591  0.4351864358691571
  0.5432433621454431  0.0517327528022682  0.1071578811022315
  0.0517327528022683  0.5432433621454431  0.1071578811022315
  0.2235653689184960  0.2235653689184960  0.5569534644757670
  0.0228069798249859  0.6723085846170431  0.6744140727142969
  0.6723085846170429  0.0228069798249857  0.6744140727142969
