INCAR created by Atomic Simulation Environment
 ENCUT = 450.000000
 KSPACING = 0.314000
 POTIM = 0.250000
 PSTRESS = 0.000000
 SIGMA = 0.060000
 EDIFF = 1.00e-05
 EDIFFG = 1.00e-03
 GGA = PE
 PREC = Normal
 IBRION = 2
 ISIF = 2
 ISMEAR = 0
 ISTART = 0
 NSW = 0
 LCHARG = .FALSE.
 LWAVE = .FALSE.
