 O  W Bi 
 1.0000000000000000
     3.5578998676229197   -5.1617780979658088    0.0761578753100325
     3.6932032000644024    5.2007005228925953   -0.0717853093562238
    -1.3974377887255767   -0.0769191813189867    4.2489689223516764
 O   W   Bi 
   6   1   2
Direct
  0.6861531630583647  0.6105214248621953  0.8309471449112635
  0.6039335010605608  0.1018044680921892  0.6739904577790563
  0.2178548486629450  0.7718571151165928  0.9600123993756627
  0.9036997417997646  0.4089107141088103  0.2630680351942014
  0.0766427487730604  0.9343022591945590  0.4775868037056324
  0.3892946274950081  0.3054360717174706  0.1323394456473353
  0.6445526635687715  0.3581848638206811  0.9735720642654295
  0.2815165238429787  0.7247834322021687  0.4623214695291999
  0.0146614787870457  0.9826074713913816  0.9805103374430613
