 O  W Bi 
 1.0000000000000000
     4.0495086292494999   -0.0528959631915388    0.0472954167909868
     0.0592649311273021    4.3383823282712033   -0.3022545344626914
    -2.1440614127957267   -2.3896040093730115    8.1925887763870975
 O   W   Bi 
   6   1   2
Direct
  0.5161116106068864  0.3464348114677983  0.1568141640349087
  0.2708096812182244  0.2782084240492078  0.5373280802983735
  0.3869175595090370  0.6455751795278095  0.9033073372222342
  0.0457777777066941  0.8322307831491426  0.1803376487418830
  0.8938554772990565  0.1635597724818991  0.8831626003960180
  0.7634672828986268  0.7220126673622749  0.5258151523889919
  0.1901580827725293  0.4972948334346872  0.0311893392887084
  0.3479364609343471  0.8353504200404335  0.6771596031239322
  0.7011298365071823  0.1665420890529498  0.3865294327701702
