 O  W Bi 
 1.0000000000000000
     4.6497266384802538   -0.7604209204115401   -0.2515063368961507
    -4.6439702448157636    6.7574547893977295    0.1405256317639108
    -0.0605375884095963   -2.7303707140487283    5.0488173402136018
 O   W   Bi 
   6   1   2
Direct
  0.1097724600257310  0.1907305461305128  0.7647379820458809
  0.3247908433891610  0.0157954118572582 -0.0236483390264331
  0.7809634248037319  0.5058602731247972  0.5386994219450744
  0.5203599141988742  0.6862300590643915  0.8031354224827265
  0.5234693176357592  0.6618134115663638  0.3295621303420183
  0.3525759525691983  0.9796377774144942  0.4698371035077737
  0.0021776862043718  0.9123061359800246  0.6542233092410776
 -0.0179763149082966  0.3319191111752395  0.3990815888068915
  0.8291621882696869  0.6240508282622211  0.9733360445179936
