 O  W Bi 
 1.0000000000000000
     3.7784489375877492    0.0116260712958087   -0.0153235341776640
     1.8485279447533081    6.3579225197848848   -0.1656811944203899
     0.0408455705324982    1.9244008638916956    6.5992523173423008
 O   W   Bi 
   6   1   2
Direct
  0.7789892904525163  0.1256391030969951  0.2134965141183036
  0.6534310070774044  0.3681633454368444  0.4919788899837899
  0.5997314711761598  0.4902479906962425  0.8900480243849712
  0.1180141555745782  0.4460044702338068  0.1760204752687597
  0.2823799076115318  0.1248535481043322  0.8474567216286054
  0.4775529569576449  0.7333149884497482  0.1713203795485324
  0.6273168270409182  0.4207620679412474  0.2192375546286525
  0.1209974234693297  0.4598177344753038  0.7163455687559204
  0.8706350585313427  0.9345160535281785  0.0008368518112812
