 O  W Bi 
 1.0000000000000000
     3.9188923731285010    0.0000000000000000    0.0000000000000000
     0.5666694479760952    5.5511578195424232    0.0000000000000000
     0.9123325537468637    2.1102265232543571    6.5071518143159652
 O   W   Bi 
   6   1   2
Direct
  0.0011206876564838  0.2061888859197045  0.0966055669793037
  0.4345190884817887  0.5463501171176322  0.9359503665021556
  0.4617291632099630  0.8677184961221382  0.2630150867803055
  0.6043603251743266  0.0822766626625761  0.8467456783164826
  0.4544220001429236  0.2991439920986977  0.3531446903270181
  0.9330814797001041  0.6875180035618379  0.5657929269082131
  0.5458897520294363  0.2091599213347139  0.0576413382126521
  0.0435056111763202  0.6074512455702826  0.2746096001800596
  0.4205520382782931  0.8842138704924932  0.6064947457938326
