 O  W Bi 
 1.0000000000000000
     4.4536848346775217    0.0000000000000000    0.0000000000000000
     1.7885600078720385    5.9996451933124817    0.0000000000000000
     0.9668700565804186    2.1053861212047811    6.2630756740122209
 O   W   Bi 
   6   1   2
Direct
  0.5566826405979367  0.6793330862655116  0.6831944607055266
  0.9525408439165308  0.1673035096973486  0.8502455596492378
  0.5652611919862420  0.8103580801634256  0.1372402379076550
  0.3288914268953125  0.3428347112136946  0.0356404743675405
  0.4325196746986852  0.2949795473376632  0.5904039984426224
  0.9724307221601890  0.9310201533576757  0.3199956256575645
  0.5715450098867702  0.3688766960691390  0.7875141348411889
  0.0952298513879550  0.7880913337224873  0.0581127935954447
  0.4342009024007924  0.0107463109201491  0.3642292610526131
