 O  W Bi 
 1.0000000000000000
     3.9011629953595990   -0.1095771491782539   -0.0196902907353063
     0.1497942892697486    6.5781764621641265   -0.1983465445266005
     0.3507040035653363    2.0676000621094022    6.5459766775997812
 O   W   Bi 
   6   1   2
Direct
  0.4517445411400443  0.8540143131805202  0.0173696894619424
  0.9447541585238046  0.2211216554085675  0.7393498757451725
  0.3809226941631803  0.5219650735920577  0.3538655990889132
  0.9175517883914606  0.5573322360231643  0.0505207373020939
  0.4320207476823423  0.5951204646219412  0.7723241477694780
  0.4425497263486112  0.2619488431582556  0.1093377855727468
  0.3824210655130770  0.5572995611690105  0.0798701837257331
  0.9782953215929711  0.5482629817021599  0.6099675510303194
  0.8823616772946151  0.0685212085643716  0.0463461822328696
