 O  W Bi 
 1.0000000000000000
     6.5816701149135968    0.6702497053637779    0.3124284646567119
    -2.6773017049926899    5.8871345665723096   -0.1939792079755989
     0.1409167668519594   -0.0469198418242784    3.9134348924281763
 O   W   Bi 
   6   1   2
Direct
  0.2593263422701293 -0.0180133405295646  0.1020195718462797
  0.6673646940516219  0.8652837087308061  0.1014364181908564
  0.3358149104349606  0.4622662687853765  0.0330797223915571
  0.9011755605328426  0.5511702063932573 -0.0403775716114634
  0.6230559228985736  0.5248330519929386  0.5286824757014315
  0.0022353493722316  0.0044799043627112  0.6317869795918266
  0.6300461418030350  0.5841569834474408  0.0766784713942418
  0.0336513029768760  0.1741954365685107  0.1349900442866142
  0.1886277949401492  0.7863655949784805  0.6380906055659381
