 O  W Bi 
 1.0000000000000000
     6.2061069901785748   -0.8859231794575829    1.0405870282472975
    -3.7630803766318346    6.4405756893265611   -0.0717721406277533
     0.6856795581579722    0.3033815892553934    3.9203117191571719
 O   W   Bi 
   6   1   2
Direct
  0.0691214125298541  0.3188136392434384  0.3843130541774218
  0.7514208709392061  0.5140244829350724  0.0766072068323658
  0.0680682319774548 -0.0181916468946011  0.3573513777278221
  0.4881247296379803  0.6752361991294310  0.6494373519949752
  0.4388181962691385  0.0005022771880913  0.6780622913642835
  0.7544084940547030  0.0039354443632728  0.0033944475259907
  0.7504253530915723 -0.0038331099024243  0.4544830479306219
  0.1311797539477724  0.7291336198902636  0.2051653744426177
  0.3714700921953992  0.3293073531276486  0.5792181208012969
